s td 90 28 209
b 1 17 23 40 48 61 70 73 93 101 102 120 142 158 164 171 181 190 209
b 2 23 44 48 70 73 93 101 102 120 142 158 164 171 181 190 209
b 3 23 44 48 55 66 70 73 93 101 102 142 158 164 171 181 190 209
b 4 5 44 46 48 55 66 70 73 93 101 102 142 158 164 171 181 190 209
b 5 2 5 44 46 55 66 70 73 93 101 102 142 158 164 171 181 186 190 209
b 6 2 5 44 46 55 66 70 93 101 102 139 142 149 158 164 171 181 186 190 209
b 7 2 5 44 46 55 66 70 101 102 104 118 139 142 149 158 164 171 181 186 190 209
b 8 2 5 24 44 46 55 66 70 102 104 118 132 139 142 149 158 164 171 181 186 190 209
b 9 2 5 24 44 46 55 66 70 95 104 112 118 132 139 142 149 158 164 171 181 186 190 209
b 10 2 5 24 39 44 46 55 66 70 95 104 112 117 118 132 139 142 149 164 171 181 186 190 209
b 11 2 5 24 39 44 46 55 66 70 95 104 112 117 118 132 139 142 149 171 173 181 186 190 191 209
b 12 2 5 24 39 44 46 55 66 70 95 104 112 117 118 132 139 141 142 149 173 181 186 190 191 194 209
b 13 2 5 24 39 44 46 47 55 66 70 95 104 112 117 118 132 138 139 141 142 149 173 186 190 191 194 209
b 14 2 5 24 39 46 47 55 66 70 95 104 112 117 118 132 138 139 141 142 149 172 173 186 190 191 194 209
b 15 8 15 18 31 45 49 50 69 70 76 78 79 96 103 119 160 197 200
b 16 4 8 15 45 49 50 69 70 76 78 79 96 103 119 160 197
b 17 4 8 15 41 45 50 69 70 76 78 79 81 96 103 119 160 197
b 18 4 15 22 41 45 50 69 70 76 78 79 81 96 103 119 160 189 197
b 19 4 22 29 41 45 50 69 70 76 78 79 81 84 96 103 119 160 189 197
b 20 4 22 29 41 50 69 70 76 78 79 81 84 96 103 119 133 160 185 189 197
b 21 4 22 28 29 41 69 70 76 78 79 81 84 86 96 103 119 133 160 185 189 197
b 22 4 22 28 29 41 69 70 78 79 81 84 86 96 97 103 119 133 159 160 185 189 197
b 23 4 22 28 29 41 59 69 70 79 81 84 85 86 96 97 103 119 133 159 160 185 189 197
b 24 4 9 22 28 29 41 59 62 69 70 81 84 85 86 96 97 103 119 133 159 160 185 189 197
b 25 4 6 9 22 28 29 41 54 59 62 69 70 81 84 85 86 97 103 119 133 159 160 185 189 197
b 26 4 6 9 22 28 29 32 41 54 59 62 65 69 70 81 84 85 86 97 119 133 159 160 185 189 197
b 27 4 6 9 22 28 29 32 41 54 59 62 65 69 70 81 84 85 86 97 133 159 160 163 185 189 197 202
b 28 4 6 9 22 28 29 32 41 54 59 62 65 69 70 81 84 85 86 97 128 133 159 163 185 189 197 202
b 29 37 71 83 91 94 99 108 110 126 136 143 152 154 157 198 199 204 205
b 30 37 83 91 94 99 108 110 126 143 154 157 162 198 199 204 205
b 31 7 37 42 83 94 99 108 110 126 143 154 157 162 198 199 204 205
b 32 7 42 60 83 94 99 108 110 126 143 154 157 162 198 199 204 205 208
b 33 7 20 42 60 94 99 108 110 126 143 154 157 159 162 198 199 204 205 208
b 34 7 20 30 42 60 99 108 110 126 143 154 157 159 162 180 198 199 204 205 208
b 35 1 7 20 30 42 60 108 110 123 126 143 154 157 159 162 180 198 199 204 205 208
b 36 1 7 10 20 30 42 60 110 123 126 143 154 157 159 162 180 198 199 204 205 206 208
b 37 1 7 10 20 30 42 60 121 123 126 143 154 157 159 162 165 180 198 199 204 205 206 208
b 38 1 7 10 20 27 30 42 60 107 121 123 143 154 157 159 162 165 180 198 199 204 205 206 208
b 39 1 7 10 20 27 30 38 42 60 107 121 123 150 154 157 159 162 165 180 198 199 204 205 206 208
b 40 1 7 10 19 20 27 30 38 42 60 107 121 123 129 150 157 159 162 165 180 198 199 204 205 206 208
b 41 1 7 10 19 20 27 30 38 42 57 60 107 113 121 123 129 150 159 162 165 180 198 199 204 205 206 208
b 42 7 27 30 42 57 113 121 123 129 150 159 162 204 206 208
b 43 1 7 10 19 20 27 30 38 42 57 60 107 113 121 123 129 130 150 159 165 180 198 199 204 205 206 208
b 44 4 42 43 53 69 72 90 100 105 125 135 140 167 169 179 192 193 207
b 45 4 42 43 53 69 84 90 100 105 135 140 167 169 192 193 195 207
b 46 4 42 53 69 84 90 100 105 128 135 140 167 169 176 192 193 195 207
b 47 4 36 42 53 69 84 100 105 128 135 140 159 167 169 176 192 193 195 207
b 48 4 21 36 42 53 69 84 100 128 133 135 140 159 167 169 176 192 193 195 207
b 49 4 21 36 42 53 59 69 84 100 128 133 140 159 167 169 176 182 192 193 195 207
b 50 4 21 36 42 53 59 69 77 84 100 128 133 159 167 169 176 182 189 192 193 195 207
b 51 4 21 36 42 53 54 59 69 77 84 100 128 133 159 169 176 182 189 192 193 195 203 207
b 52 4 9 21 36 42 53 54 59 69 77 84 88 100 128 133 159 176 182 189 192 193 195 203 207
b 53 4 9 21 36 42 53 54 59 69 77 84 88 100 128 133 159 176 182 189 193 195 196 202 203 207
b 54 4 9 21 36 42 53 54 59 69 77 84 86 88 98 100 128 133 159 176 182 189 195 196 202 203 207
b 55 4 9 21 36 41 42 53 54 59 69 77 84 86 88 98 100 128 133 159 170 176 182 189 195 196 202 203
b 56 4 9 21 32 36 41 53 54 59 69 77 84 86 88 98 100 128 133 159 170 176 182 189 195 196 202 203
b 57 4 9 32 41 53 54 59 69 70 84 86 128 133 159 189 202
b 58 13 34 35 44 52 53 58 64 68 74 89 106 114 142 146 166 175 188
b 59 2 3 5 24 26 33 35 39 44 47 51 56 66 70 89 92 111 112 134 138 142 149 161 168 175 183 191 194
b 60 2 5 24 26 33 35 39 44 47 51 56 58 66 70 89 92 111 112 134 138 142 149 161 168 175 183 194
b 61 2 24 26 33 35 39 44 47 51 52 56 58 66 70 89 92 111 112 134 138 142 149 161 168 175 194
b 62 2 24 33 35 39 44 47 51 52 56 58 66 70 89 92 111 112 134 142 146 149 161 168 175 194
b 63 2 24 33 35 39 44 47 51 52 58 64 70 89 92 111 112 134 142 146 149 161 168 175 194
b 64 2 13 24 35 39 44 47 51 52 58 64 70 89 92 111 134 142 146 149 161 168 175 194
b 65 2 13 35 39 44 47 52 58 64 68 70 89 92 111 134 142 146 149 161 168 175 194
b 66 2 13 35 44 47 52 58 64 68 70 89 92 111 114 134 142 146 149 168 175 194
b 67 2 13 35 44 47 52 58 64 68 70 89 92 111 114 142 146 168 175 188 194
b 68 13 35 44 47 52 58 64 68 70 74 89 92 111 114 142 146 175 188 194
b 69 13 34 35 44 47 52 58 64 68 70 74 89 111 114 142 146 175 188
b 70 13 34 35 44 52 53 58 64 68 70 74 89 114 142 146 175 188
b 71 2 3 5 24 26 33 39 44 47 51 56 66 70 89 92 111 112 118 134 138 142 149 161 168 175 183 191 194
b 72 25 67 75 82 116 122 131 137 145 147 148 156 162 177 178 184 201 204
b 73 25 30 67 75 82 116 122 131 145 147 148 153 162 178 184 201 204
b 74 30 67 75 82 116 121 122 131 145 147 148 153 162 178 184 187 201 204
b 75 7 30 75 82 116 121 122 131 145 147 148 153 162 174 178 184 187 201 204
b 76 7 30 82 113 116 121 122 124 131 145 147 148 153 162 174 178 184 187 201 204
b 77 7 27 30 113 115 116 121 122 124 131 145 147 148 153 162 174 178 184 187 201 204
b 78 7 27 30 113 115 121 122 124 131 144 145 147 148 153 162 174 178 184 187 201 204 208
b 79 7 12 27 30 113 115 121 124 131 144 145 147 148 153 162 174 178 184 187 201 204 206 208
b 80 7 12 27 30 109 113 115 121 124 144 145 147 148 153 159 162 174 178 184 187 201 204 206 208
b 81 7 12 27 30 57 109 113 115 121 124 144 147 148 151 153 159 162 174 178 184 187 201 204 206 208
b 82 7 12 27 30 57 80 109 113 115 121 123 124 144 148 151 153 159 162 174 178 184 187 201 204 206 208
b 83 7 12 27 30 57 80 109 113 115 121 123 124 129 144 150 151 153 159 162 174 178 184 187 201 204 206 208
b 84 7 12 27 30 57 80 109 113 115 121 123 124 129 144 150 151 153 155 159 174 178 184 187 201 204 206 208
b 85 6 9 11 22 28 29 32 41 54 59 62 65 69 70 81 84 85 86 97 128 133 159 163 185 189 197 202
b 86 7 12 14 27 30 57 80 109 113 115 121 123 124 129 144 150 151 153 155 159 174 178 187 201 204 206 208
b 87 2 3 5 16 24 26 33 39 47 51 56 66 89 92 111 112 118 134 138 142 149 161 168 175 183 191 194
b 88 2 5 24 39 46 47 55 63 66 70 95 104 112 117 118 132 138 139 141 142 149 172 173 186 190 191 194
b 89 1 7 10 19 20 27 30 38 42 57 60 87 107 113 121 123 129 130 150 159 165 180 199 204 205 206 208
b 90 9 21 32 36 41 53 54 59 69 77 84 86 88 98 100 127 128 133 159 170 176 182 189 195 196 202 203
1 2
2 3
3 4
4 5
5 6
6 7
7 8
8 9
9 10
10 11
11 12
12 13
13 71
13 14
14 88
15 16
16 17
17 18
18 19
19 20
20 21
21 22
22 23
23 24
24 25
25 26
26 27
27 28
28 85
28 57
29 30
30 31
31 32
32 33
33 47
33 34
34 35
35 36
36 37
37 38
38 39
39 40
40 41
41 83
41 43
41 42
43 89
44 45
45 46
46 47
47 48
48 49
49 50
50 51
51 52
52 53
53 54
54 55
55 56
56 90
56 57
57 70
58 70
59 60
59 71
60 61
61 62
62 63
63 64
64 65
65 66
66 67
67 68
68 69
69 70
71 87
72 73
73 74
74 75
75 76
76 77
77 78
78 79
79 80
80 81
81 82
82 83
83 84
84 86
